c Random generated cnf formula, satisfiable: false
p cnf 10 50
-9 -5 6 0
-4 -7 8 0
3 -6 -8 0
-8 -4 -9 0
-2 3 8 0
-5 7 6 0
4 8 -5 0
-1 10 -5 0
4 -10 5 0
-4 10 -9 0
3 -7 9 0
-4 9 1 0
-7 5 9 0
-4 -6 -7 0
10 7 9 0
-1 5 7 0
-3 5 -6 0
-7 -2 -3 0
-6 1 -4 0
-9 10 2 0
-9 -1 -8 0
5 7 6 0
-3 -5 -7 0
4 7 10 0
4 9 6 0
-9 -8 5 0
4 -10 -6 0
3 -1 9 0
-5 -10 8 0
-3 -4 -2 0
-6 -7 10 0
-6 2 8 0
7 -8 6 0
-5 8 6 0
7 -8 4 0
-5 10 7 0
1 3 -7 0
-3 10 7 0
-4 -2 -10 0
6 -1 -5 0
3 -9 4 0
-4 1 9 0
-5 4 6 0
4 -1 2 0
-4 10 2 0
-10 2 7 0
-4 -7 8 0
-9 5 7 0
-1 -2 5 0
1 7 -5 0
